250
13 872
13 349
17 971
11 785
19 537
20 22
10 903
18 208
15 203
14 754
18 64
15 52
15 115
20 707
15 542
20 551
15 683
17 853
10 880
14 71
19 800
16 162
11 397
19 250
12 350
10 347
11 982
14 199
11 275
11 162
